l=1317;
a=2;
setup_costs=[|3,0,
|0,3,
|0,0,|];
setup_times=[|0,1,
|2,2,
|0,0,|];
m=5;
min_cap=[0, 0, 0, 0, 0];
max_cap=[20, 20, 20, 20, 20];

initState=[1, 2, 2, 1, 1];
s=4;
m_a_s = [|0,0,300,731,
|0,0,0,226,
|0,0,148,642,
|293,617,698,1191,
|0,0,113,229|];
m_a_e = [|0,0,726,1187,
|0,0,0,1237,
|0,0,586,1179,
|540,682,1072,1304,
|0,0,222,1168|];
n=100;
eligible_machine =[{1, 2, 3}, {1, 2, 3, 5}, {2, 3, 4, 5}, {1, 2, 4}, {1, 2, 3, 4}, {1, 2, 3, 5}, {1, 2, 3, 4, 5}, {2, 3, 4, 5}, {1, 2, 3}, {3, 5}, {1, 4}, {2, 4, 5}, {1, 4}, {1, 2, 3, 5}, {2, 4, 5}, {2, 4, 5}, {1, 3, 5}, {1, 2, 5}, {1, 2, 3, 5}, {1, 5}, {1, 4, 5}, {3, 5}, {1, 3, 4, 5}, {1, 2}, {4, 5}, {1, 4, 5}, {1, 2, 4, 5}, {1}, {2}, {1, 2, 3, 4}, {1, 2, 3, 4, 5}, {1, 2, 5}, {1, 5}, {1, 2, 3, 4}, {1, 2, 4, 5}, {2, 3, 4, 5}, {1, 3, 4, 5}, {1, 2, 5}, {2, 3, 4, 5}, {1, 3, 4}, {1, 2, 5}, {1, 2, 3, 5}, {1, 4}, {1, 2, 3, 5}, {1, 2, 3, 5}, {2, 3}, {1, 5}, {1, 2}, {1, 2, 3, 4, 5}, {2, 3, 4}, {2, 3}, {2, 4, 5}, {5}, {3, 4, 5}, {1, 2, 3, 5}, {1, 3, 4}, {3, 4}, {4, 5}, {1, 3, 4, 5}, {1, 2, 5}, {3, 5}, {2, 5}, {1, 4, 5}, {2, 3, 5}, {1, 2, 3}, {1, 2, 3, 5}, {1, 2}, {2, 3, 5}, {4, 5}, {1, 2, 3, 5}, {1, 5}, {2, 3, 4, 5}, {1, 2, 3, 4}, {2, 4, 5}, {1, 5}, {2, 3, 4, 5}, {2, 4}, {1, 2, 4}, {2, 5}, {2, 3, 5}, {2}, {2, 4}, {3}, {2, 3, 4}, {1, 2, 4}, {1, 2, 5}, {1, 2, 3, 4}, {1, 3, 4}, {4, 5}, {2}, {1, 2, 3, 4, 5}, {2, 3, 4}, {2, 4, 5}, {1, 2, 4, 5}, {1, 2, 5}, {1, 2, 4, 5}, {1, 2, 5}, {3}, {2, 4}, {1, 4, 5}];
earliest_start=[46, 92, 249, 250, 143, 110, 241, 102, 120, 181, 10, 85, 258, 120, 144, 85, 207, 260, 157, 42, 193, 138, 91, 141, 35, 255, 203, 196, 102, 28, 249, 42, 114, 183, 116, 121, 282, 121, 187, 160, 246, 15, 251, 136, 58, 270, 180, 128, 185, 202, 30, 248, 78, 127, 8, 280, 214, 212, 38, 3, 56, 253, 32, 0, 29, 92, 8, 12, 28, 126, 231, 197, 103, 107, 233, 16, 230, 116, 263, 101, 223, 102, 177, 183, 103, 33, 109, 33, 228, 68, 48, 146, 73, 108, 110, 283, 255, 109, 268, 265];
latest_end=[69, 99, 268, 258, 165, 116, 252, 129, 146, 183, 28, 106, 297, 134, 164, 108, 211, 275, 169, 49, 213, 152, 99, 151, 81, 259, 204, 201, 112, 61, 261, 53, 125, 195, 126, 124, 314, 159, 195, 182, 270, 23, 257, 150, 66, 313, 218, 155, 194, 220, 60, 259, 106, 134, 12, 303, 230, 244, 51, 28, 83, 279, 35, 31, 32, 132, 35, 26, 42, 134, 232, 216, 106, 131, 239, 50, 239, 120, 295, 136, 232, 103, 178, 197, 112, 67, 123, 52, 247, 74, 52, 172, 76, 122, 112, 318, 269, 139, 279, 270];
min_time=[7, 5, 4, 8, 5, 4, 6, 6, 6, 1, 7, 6, 10, 3, 9, 5, 4, 5, 3, 2, 10, 3, 2, 4, 10, 1, 1, 2, 7, 8, 7, 4, 5, 9, 7, 2, 10, 9, 3, 8, 10, 2, 3, 3, 4, 10, 9, 9, 2, 8, 8, 6, 6, 2, 1, 9, 8, 7, 8, 8, 7, 7, 2, 10, 1, 10, 8, 10, 5, 8, 1, 8, 3, 6, 4, 10, 6, 2, 8, 8, 7, 1, 1, 7, 2, 7, 9, 10, 10, 3, 1, 10, 1, 3, 2, 8, 8, 8, 7, 5];
max_time=[10, 10, 10, 10, 10, 10, 10, 10, 10, 10, 10, 10, 10, 10, 10, 10, 10, 10, 10, 10, 10, 10, 10, 10, 10, 10, 10, 10, 10, 10, 10, 10, 10, 10, 10, 10, 10, 10, 10, 10, 10, 10, 10, 10, 10, 10, 10, 10, 10, 10, 10, 10, 10, 10, 10, 10, 10, 10, 10, 10, 10, 10, 10, 10, 10, 10, 10, 10, 10, 10, 10, 10, 10, 10, 10, 10, 10, 10, 10, 10, 10, 10, 10, 10, 10, 10, 10, 10, 10, 10, 10, 10, 10, 10, 10, 10, 10, 10, 10, 10];
size=[9, 14, 6, 9, 5, 8, 9, 13, 18, 1, 1, 11, 11, 16, 8, 1, 20, 8, 7, 11, 18, 10, 16, 11, 12, 20, 15, 2, 19, 11, 11, 3, 10, 10, 3, 20, 9, 13, 3, 18, 19, 20, 20, 13, 10, 3, 13, 10, 19, 3, 6, 13, 15, 13, 18, 15, 14, 16, 20, 1, 19, 12, 4, 3, 20, 18, 19, 7, 14, 1, 13, 16, 13, 2, 9, 16, 6, 8, 7, 5, 18, 20, 11, 8, 18, 17, 11, 16, 1, 1, 5, 11, 13, 11, 1, 16, 3, 6, 9, 20];
attribute=[1, 1, 1, 2, 1, 1, 2, 2, 1, 1, 1, 1, 1, 2, 2, 1, 2, 1, 2, 2, 2, 2, 1, 1, 2, 2, 2, 1, 1, 1, 2, 2, 2, 2, 2, 1, 2, 1, 1, 1, 1, 1, 1, 1, 1, 1, 1, 1, 2, 2, 2, 2, 1, 2, 2, 1, 1, 2, 1, 2, 1, 2, 1, 2, 1, 1, 2, 1, 1, 1, 1, 1, 1, 2, 1, 1, 2, 2, 1, 1, 2, 1, 1, 1, 1, 1, 2, 1, 2, 1, 1, 2, 2, 1, 1, 1, 2, 2, 1, 2];

upper_bound_integer_objective=3000;
mult_factor_total_runtime=2;
mult_factor_finished_toolate=12;
mult_factor_total_setuptimes=0;
mult_factor_total_setupcosts=2;
running_time_bound=575;
min_duration=1;
max_duration=10;
max_setup_time=2;
max_setup_cost=3;